Welcome to the CBC MILP Solver 
Version: 2.10.7 
Build Date: Feb 14 2022 

command line - cbc inputs/new_tr/order/jump30_up_right_input.lp sec 1800 solve solu solutions/new_tr/jump30_up_right_input.lp (default strategy 1)
seconds was changed from 1e+100 to 1800
Continuous objective value is 29902.8 - 0.21 seconds
Cgl0002I 155 variables fixed
Cgl0003I 0 fixed, 1 tightened bounds, 406 strengthened rows, 0 substitutions
Cgl0003I 0 fixed, 0 tightened bounds, 70 strengthened rows, 0 substitutions
Cgl0004I processed model has 2424 rows, 772 columns (772 integer (741 of which binary)) and 8238 elements
Cutoff increment increased from 1e-05 to 0.9999
Cbc0045I 1 integer variables out of 772 objects (772 integer) have cost of 1 - high priority
Cbc0045I branch on satisfied Y create fake objective Y random cost Y
Cbc0038I Initial state - 325 integers unsatisfied sum - 70.5642
Cbc0038I Pass   1: suminf.   31.51156 (267) obj. 35203 iterations 986
Cbc0038I Pass   2: suminf.   27.97045 (265) obj. 36053.4 iterations 165
Cbc0038I Pass   3: suminf.   26.08677 (261) obj. 36044.2 iterations 64
Cbc0038I Pass   4: suminf.   25.15648 (227) obj. 40071.7 iterations 444
Cbc0038I Pass   5: suminf.   25.38115 (228) obj. 42820.3 iterations 177
Cbc0038I Pass   6: suminf.   24.18885 (206) obj. 43902 iterations 333
Cbc0038I Pass   7: suminf.   22.93288 (208) obj. 42427.4 iterations 159
Cbc0038I Pass   8: suminf.   20.81162 (187) obj. 46880.1 iterations 256
Cbc0038I Pass   9: suminf.   20.41070 (191) obj. 47018 iterations 88
Cbc0038I Pass  10: suminf.   16.41224 (186) obj. 47986.3 iterations 238
Cbc0038I Pass  11: suminf.   16.32910 (181) obj. 47981.7 iterations 6
Cbc0038I Pass  12: suminf.   15.72477 (173) obj. 49523.4 iterations 278
Cbc0038I Pass  13: suminf.   14.67528 (161) obj. 49753.9 iterations 51
Cbc0038I Pass  14: suminf.   13.94935 (146) obj. 49939.8 iterations 160
Cbc0038I Pass  15: suminf.   13.94935 (146) obj. 49939.8 iterations 8
Cbc0038I Pass  16: suminf.   12.00423 (146) obj. 52224 iterations 277
Cbc0038I Pass  17: suminf.   11.89890 (146) obj. 52224 iterations 10
Cbc0038I Pass  18: suminf.   12.37229 (135) obj. 55504.5 iterations 206
Cbc0038I Pass  19: suminf.   11.69811 (141) obj. 55508.2 iterations 24
Cbc0038I Pass  20: suminf.   14.32470 (147) obj. 56612.2 iterations 180
Cbc0038I Pass  21: suminf.   11.71216 (131) obj. 55985.5 iterations 124
Cbc0038I Pass  22: suminf.    8.98313 (137) obj. 52224 iterations 175
Cbc0038I Pass  23: suminf.    8.65826 (135) obj. 52224 iterations 8
Cbc0038I Pass  24: suminf.   10.81434 (146) obj. 55872 iterations 162
Cbc0038I Pass  25: suminf.    9.66997 (138) obj. 55736.1 iterations 19
Cbc0038I Pass  26: suminf.    8.48830 (128) obj. 52224 iterations 312
Cbc0038I Pass  27: suminf.    7.94584 (124) obj. 52224 iterations 20
Cbc0038I Pass  28: suminf.    8.10638 (122) obj. 55822.3 iterations 505
Cbc0038I Pass  29: suminf.    6.63673 (114) obj. 55886.4 iterations 26
Cbc0038I Pass  30: suminf.    7.01567 (108) obj. 52224 iterations 193
Cbc0038I Pass  31: suminf.    7.01567 (108) obj. 52224 iterations 1
Cbc0038I Pass  32: suminf.    5.18492 (71) obj. 52224 iterations 206
Cbc0038I Pass  33: suminf.    5.18492 (71) obj. 52224 iterations 4
Cbc0038I Pass  34: suminf.    6.51058 (73) obj. 52020.5 iterations 145
Cbc0038I Pass  35: suminf.    6.51058 (73) obj. 52020.5 iterations 7
Cbc0038I Pass  36: suminf.    2.76575 (52) obj. 52224 iterations 240
Cbc0038I Pass  37: suminf.    2.76575 (52) obj. 52224 iterations 5
Cbc0038I Pass  38: suminf.    8.18781 (63) obj. 52027.6 iterations 425
Cbc0038I Pass  39: suminf.    7.41561 (69) obj. 52029.7 iterations 89
Cbc0038I Pass  40: suminf.    6.74162 (61) obj. 52242.5 iterations 328
Cbc0038I Pass  41: suminf.    5.81028 (60) obj. 52242.5 iterations 34
Cbc0038I Pass  42: suminf.    1.91213 (34) obj. 57747.2 iterations 191
Cbc0038I Pass  43: suminf.    2.73585 (27) obj. 61361.4 iterations 232
Cbc0038I Pass  44: suminf.    2.23783 (26) obj. 61364.9 iterations 7
Cbc0038I Pass  45: suminf.    3.04872 (29) obj. 57344 iterations 121
Cbc0038I Pass  46: suminf.    2.63308 (22) obj. 57344 iterations 47
Cbc0038I Pass  47: suminf.    3.33627 (25) obj. 57344 iterations 71
Cbc0038I Pass  48: suminf.    3.03339 (27) obj. 57344 iterations 44
Cbc0038I Pass  49: suminf.    1.42569 (26) obj. 57344 iterations 309
Cbc0038I Pass  50: suminf.    1.15315 (24) obj. 57344 iterations 105
Cbc0038I Pass  51: suminf.    0.33791 (19) obj. 57344 iterations 261
Cbc0038I Pass  52: suminf.    0.33791 (19) obj. 57344 iterations 6
Cbc0038I Pass  53: suminf.    0.23529 (10) obj. 57344 iterations 54
Cbc0038I Pass  54: suminf.    0.45048 (13) obj. 57344 iterations 31
Cbc0038I Pass  55: suminf.    0.32849 (13) obj. 57344 iterations 26
Cbc0038I Pass  56: suminf.   50.26177 (230) obj. 55498.8 iterations 651
Cbc0038I Pass  57: suminf.   33.81222 (197) obj. 55514.7 iterations 370
Cbc0038I Pass  58: suminf.   32.20332 (186) obj. 55492.4 iterations 39
Cbc0038I Pass  59: suminf.   22.40258 (150) obj. 54238.3 iterations 197
Cbc0038I Pass  60: suminf.   21.45231 (157) obj. 54238.2 iterations 60
Cbc0038I Pass  61: suminf.   11.04474 (112) obj. 54272 iterations 242
Cbc0038I Pass  62: suminf.   10.56497 (111) obj. 54272 iterations 15
Cbc0038I Pass  63: suminf.    9.08199 (86) obj. 57344 iterations 280
Cbc0038I Pass  64: suminf.    6.99116 (85) obj. 57344 iterations 62
Cbc0038I Pass  65: suminf.    6.99116 (85) obj. 57344 iterations 7
Cbc0038I Pass  66: suminf.    8.22787 (67) obj. 57344 iterations 262
Cbc0038I Pass  67: suminf.    6.78219 (67) obj. 57344 iterations 12
Cbc0038I Pass  68: suminf.    6.87054 (63) obj. 57344 iterations 201
Cbc0038I Pass  69: suminf.    6.73657 (56) obj. 57344 iterations 68
Cbc0038I Pass  70: suminf.    3.08919 (23) obj. 57344 iterations 313
Cbc0038I Pass  71: suminf.    2.70173 (21) obj. 57344 iterations 1
Cbc0038I Pass  72: suminf.    1.12688 (40) obj. 57344 iterations 104
Cbc0038I Pass  73: suminf.    1.12688 (40) obj. 57344 iterations 7
Cbc0038I Pass  74: suminf.    3.57419 (44) obj. 57344 iterations 711
Cbc0038I Pass  75: suminf.    1.08558 (31) obj. 57344 iterations 230
Cbc0038I Pass  76: suminf.    1.08558 (31) obj. 57344 iterations 10
Cbc0038I Pass  77: suminf.    0.33083 (13) obj. 57344 iterations 61
Cbc0038I Pass  78: suminf.    0.33083 (13) obj. 57344 iterations 1
Cbc0038I Pass  79: suminf.    0.23529 (10) obj. 57344 iterations 27
Cbc0038I Pass  80: suminf.    0.45048 (13) obj. 57344 iterations 29
Cbc0038I Pass  81: suminf.    0.32849 (13) obj. 57344 iterations 32
Cbc0038I Pass  82: suminf.   48.52420 (233) obj. 63575.7 iterations 612
Cbc0038I Pass  83: suminf.   31.40243 (226) obj. 64723.3 iterations 372
Cbc0038I Pass  84: suminf.   31.63148 (226) obj. 64676.6 iterations 19
Cbc0038I Pass  85: suminf.   24.86805 (179) obj. 64947.3 iterations 174
Cbc0038I Pass  86: suminf.   24.29033 (177) obj. 64946.4 iterations 66
Cbc0038I Pass  87: suminf.   21.54742 (173) obj. 64946.4 iterations 174
Cbc0038I Pass  88: suminf.   21.49752 (173) obj. 64946.3 iterations 27
Cbc0038I Pass  89: suminf.   18.26926 (158) obj. 64865.5 iterations 124
Cbc0038I Pass  90: suminf.   17.86259 (157) obj. 64894.4 iterations 69
Cbc0038I Pass  91: suminf.   17.59006 (144) obj. 64191.8 iterations 282
Cbc0038I Pass  92: suminf.   14.10026 (143) obj. 65356.4 iterations 130
Cbc0038I Pass  93: suminf.   13.73470 (143) obj. 65355.1 iterations 7
Cbc0038I Pass  94: suminf.   12.40117 (125) obj. 64838.9 iterations 136
Cbc0038I Pass  95: suminf.   12.19829 (124) obj. 64646.3 iterations 28
Cbc0038I Pass  96: suminf.    9.65446 (116) obj. 64338.7 iterations 79
Cbc0038I Pass  97: suminf.    9.81049 (117) obj. 65021.2 iterations 6
Cbc0038I Pass  98: suminf.    9.64893 (107) obj. 58226.9 iterations 153
Cbc0038I Pass  99: suminf.    9.64893 (107) obj. 58226.9 iterations 4
Cbc0038I Pass 100: suminf.   56.20821 (280) obj. 67947.8 iterations 609
Cbc0038I Rounding solution of 57344 is better than previous of 1e+50

Cbc0038I Before mini branch and bound, 111 integers at bound fixed and 0 continuous
Cbc0038I Full problem 2424 rows 772 columns, reduced to 1967 rows 624 columns - too large
Cbc0038I Mini branch and bound did not improve solution (2.97 seconds)
Cbc0038I Round again with cutoff of 54606.2
Cbc0038I Pass 100: suminf.   31.51156 (267) obj. 35203 iterations 0
Cbc0038I Pass 101: suminf.   27.97045 (265) obj. 36053.4 iterations 135
Cbc0038I Pass 102: suminf.   26.08677 (261) obj. 36044.2 iterations 108
Cbc0038I Pass 103: suminf.   25.25261 (228) obj. 41109.3 iterations 446
Cbc0038I Pass 104: suminf.   25.38115 (228) obj. 42820.3 iterations 96
Cbc0038I Pass 105: suminf.   22.81709 (206) obj. 42427.8 iterations 313
Cbc0038I Pass 106: suminf.   22.58454 (189) obj. 42428.5 iterations 98
Cbc0038I Pass 107: suminf.   21.79481 (196) obj. 42359.2 iterations 156
Cbc0038I Pass 108: suminf.   21.79481 (196) obj. 42359.2 iterations 1
Cbc0038I Pass 109: suminf.   20.14755 (186) obj. 42602.4 iterations 200
Cbc0038I Pass 110: suminf.   17.18193 (197) obj. 42460.1 iterations 107
Cbc0038I Pass 111: suminf.   18.06935 (183) obj. 48395.3 iterations 138
Cbc0038I Pass 112: suminf.   18.01806 (178) obj. 49322.6 iterations 46
Cbc0038I Pass 113: suminf.   19.02568 (165) obj. 42758 iterations 309
Cbc0038I Pass 114: suminf.   17.48625 (157) obj. 42837 iterations 72
Cbc0038I Pass 115: suminf.   16.58758 (169) obj. 42933.7 iterations 79
Cbc0038I Pass 116: suminf.   14.59224 (167) obj. 43249 iterations 234
Cbc0038I Pass 117: suminf.   14.41421 (168) obj. 43151.5 iterations 124
Cbc0038I Pass 118: suminf.   15.09371 (161) obj. 44211.6 iterations 66
Cbc0038I Pass 119: suminf.   15.24196 (160) obj. 47045.4 iterations 266
Cbc0038I Pass 120: suminf.   15.02945 (174) obj. 47025.8 iterations 62
Cbc0038I Pass 121: suminf.   14.34689 (178) obj. 47022.1 iterations 15
Cbc0038I Pass 122: suminf.   15.09771 (148) obj. 46771.6 iterations 90
Cbc0038I Pass 123: suminf.   14.26787 (141) obj. 46926.3 iterations 114
Cbc0038I Pass 124: suminf.   13.87718 (140) obj. 46486.7 iterations 176
Cbc0038I Pass 125: suminf.   11.88218 (148) obj. 46780.9 iterations 120
Cbc0038I Pass 126: suminf.   14.57741 (140) obj. 46511 iterations 193
Cbc0038I Pass 127: suminf.   11.09747 (125) obj. 46531.6 iterations 63
Cbc0038I Pass 128: suminf.   10.08536 (94) obj. 45488.9 iterations 365
Cbc0038I Pass 129: suminf.    7.27251 (101) obj. 45335.8 iterations 238
Cbc0038I Pass 130: suminf.    9.27364 (94) obj. 43025 iterations 251
Cbc0038I Pass 131: suminf.    8.68673 (93) obj. 43008 iterations 38
Cbc0038I Pass 132: suminf.    7.67798 (89) obj. 43016.2 iterations 74
Cbc0038I Pass 133: suminf.    7.50517 (91) obj. 43025 iterations 42
Cbc0038I Pass 134: suminf.    9.47325 (98) obj. 45456.9 iterations 157
Cbc0038I Pass 135: suminf.    9.82208 (97) obj. 45453.4 iterations 8
Cbc0038I Pass 136: suminf.    7.71144 (99) obj. 49919.8 iterations 293
Cbc0038I Pass 137: suminf.    9.48270 (100) obj. 54606.2 iterations 389
Cbc0038I Pass 138: suminf.    7.41276 (97) obj. 54606.2 iterations 80
Cbc0038I Pass 139: suminf.    8.57499 (82) obj. 54606.2 iterations 123
Cbc0038I Pass 140: suminf.    7.61065 (78) obj. 54606.2 iterations 89
Cbc0038I Pass 141: suminf.    2.18535 (46) obj. 54606.2 iterations 206
Cbc0038I Pass 142: suminf.    1.85904 (37) obj. 54606.2 iterations 25
Cbc0038I Pass 143: suminf.    1.03749 (30) obj. 54606.2 iterations 329
Cbc0038I Pass 144: suminf.    1.03749 (30) obj. 54606.2 iterations 3
Cbc0038I Pass 145: suminf.    1.09795 (18) obj. 54606.2 iterations 121
Cbc0038I Pass 146: suminf.    1.09659 (20) obj. 54606.2 iterations 13
Cbc0038I Pass 147: suminf.    3.18224 (18) obj. 54606.2 iterations 66
Cbc0038I Pass 148: suminf.    0.24135 (1) obj. 54606.2 iterations 125
Cbc0038I Solution found of 54606.2
Cbc0038I Branch and bound needed to clear up 1 general integers
Cbc0038I Full problem 2425 rows 772 columns, reduced to 0 rows 0 columns
Cbc0038I Cleaned solution of 50176
Cbc0038I Before mini branch and bound, 292 integers at bound fixed and 0 continuous
Cbc0038I Full problem 2424 rows 772 columns, reduced to 1611 rows 480 columns - 43 fixed gives 1310, 379 - still too large
Cbc0038I Full problem 2424 rows 772 columns, reduced to 450 rows 152 columns
Cbc0038I Mini branch and bound improved solution from 50176 to 44032 (4.01 seconds)
Cbc0038I Round again with cutoff of 41219.9
Cbc0038I Pass 149: suminf.   31.51156 (267) obj. 35203 iterations 0
Cbc0038I Pass 150: suminf.   27.97045 (265) obj. 36053.4 iterations 135
Cbc0038I Pass 151: suminf.   26.08677 (261) obj. 36044.2 iterations 108
Cbc0038I Pass 152: suminf.   23.86838 (242) obj. 40162 iterations 393
Cbc0038I Pass 153: suminf.   24.34072 (241) obj. 40165.5 iterations 17
Cbc0038I Pass 154: suminf.   21.64642 (210) obj. 41219.9 iterations 371
Cbc0038I Pass 155: suminf.   21.45498 (215) obj. 41219.9 iterations 68
Cbc0038I Pass 156: suminf.   21.16112 (176) obj. 41219.9 iterations 485
Cbc0038I Pass 157: suminf.   17.70733 (176) obj. 41219.9 iterations 153
Cbc0038I Pass 158: suminf.   15.46830 (174) obj. 41219.9 iterations 70
Cbc0038I Pass 159: suminf.   14.93664 (173) obj. 41219.9 iterations 182
Cbc0038I Pass 160: suminf.   14.85635 (173) obj. 41219.9 iterations 108
Cbc0038I Pass 161: suminf.   14.21166 (170) obj. 41219.9 iterations 79
Cbc0038I Pass 162: suminf.   14.26196 (170) obj. 41219.9 iterations 13
Cbc0038I Pass 163: suminf.   12.74439 (161) obj. 41219.9 iterations 330
Cbc0038I Pass 164: suminf.   11.98512 (140) obj. 41219.9 iterations 144
Cbc0038I Pass 165: suminf.   11.98512 (140) obj. 41219.9 iterations 6
Cbc0038I Pass 166: suminf.   11.11945 (117) obj. 41219.9 iterations 291
Cbc0038I Pass 167: suminf.    9.05614 (112) obj. 41219.9 iterations 316
Cbc0038I Pass 168: suminf.   14.29503 (118) obj. 41219.9 iterations 307
Cbc0038I Pass 169: suminf.   11.56949 (133) obj. 41219.9 iterations 90
Cbc0038I Pass 170: suminf.   12.33492 (104) obj. 41219.9 iterations 276
Cbc0038I Pass 171: suminf.   11.26082 (103) obj. 41219.9 iterations 111
Cbc0038I Pass 172: suminf.    8.38792 (103) obj. 41219.9 iterations 226
Cbc0038I Pass 173: suminf.    8.31121 (105) obj. 41219.9 iterations 11
Cbc0038I Pass 174: suminf.   11.03626 (98) obj. 41219.9 iterations 115
Cbc0038I Pass 175: suminf.    9.76116 (104) obj. 41219.9 iterations 93
Cbc0038I Pass 176: suminf.   11.03024 (100) obj. 41219.9 iterations 124
Cbc0038I Pass 177: suminf.    8.95619 (108) obj. 41219.9 iterations 152
Cbc0038I Pass 178: suminf.   10.09857 (110) obj. 41219.9 iterations 192
Cbc0038I Pass 179: suminf.    9.13723 (105) obj. 41219.9 iterations 42
Cbc0038I Pass 180: suminf.    9.75748 (102) obj. 41219.9 iterations 316
Cbc0038I Pass 181: suminf.    9.51438 (102) obj. 41219.9 iterations 42
Cbc0038I Pass 182: suminf.   10.42877 (104) obj. 41219.9 iterations 444
Cbc0038I Pass 183: suminf.    7.20332 (93) obj. 41219.9 iterations 62
Cbc0038I Pass 184: suminf.    7.06163 (90) obj. 41219.9 iterations 23
Cbc0038I Pass 185: suminf.    3.42413 (57) obj. 41219.9 iterations 577
Cbc0038I Pass 186: suminf.    3.42413 (57) obj. 41219.9 iterations 8
Cbc0038I Pass 187: suminf.    2.83410 (41) obj. 41219.9 iterations 288
Cbc0038I Pass 188: suminf.    2.78006 (39) obj. 41219.9 iterations 6
Cbc0038I Pass 189: suminf.    3.07392 (15) obj. 41219.9 iterations 350
Cbc0038I Pass 190: suminf.    3.01881 (28) obj. 41219.9 iterations 247
Cbc0038I Pass 191: suminf.    1.44570 (30) obj. 41219.9 iterations 509
Cbc0038I Pass 192: suminf.    0.11740 (1) obj. 41219.9 iterations 41
Cbc0038I Solution found of 41219.9
Cbc0038I Branch and bound needed to clear up 1 general integers
Cbc0038I Full problem 2425 rows 772 columns, reduced to 0 rows 0 columns
Cbc0038I Cleaned solution of 37888
Cbc0038I Before mini branch and bound, 318 integers at bound fixed and 0 continuous
Cbc0038I Full problem 2424 rows 772 columns, reduced to 1549 rows 454 columns - 95 fixed gives 1016, 259 - ok now
Cbc0038I Full problem 2424 rows 772 columns, reduced to 245 rows 90 columns
Cbc0038I Mini branch and bound improved solution from 37888 to 36864 (5.12 seconds)
Cbc0038I Round again with cutoff of 34796.7
Cbc0038I Pass 193: suminf.   31.70077 (271) obj. 34796 iterations 22
Cbc0038I Pass 194: suminf.   29.25119 (272) obj. 34796.7 iterations 208
Cbc0038I Pass 195: suminf.   27.44430 (260) obj. 34796.7 iterations 129
Cbc0038I Pass 196: suminf.   27.11313 (245) obj. 34796.7 iterations 359
Cbc0038I Pass 197: suminf.   26.36480 (230) obj. 34796.7 iterations 193
Cbc0038I Pass 198: suminf.   26.19158 (230) obj. 34796.7 iterations 15
Cbc0038I Pass 199: suminf.   27.84685 (234) obj. 34796.7 iterations 117
Cbc0038I Pass 200: suminf.   25.97178 (233) obj. 34796.7 iterations 70
Cbc0038I Pass 201: suminf.   30.03165 (222) obj. 34796.7 iterations 167
Cbc0038I Pass 202: suminf.   29.54563 (223) obj. 34796.7 iterations 167
Cbc0038I Pass 203: suminf.   27.92521 (226) obj. 34796.7 iterations 58
Cbc0038I Pass 204: suminf.   26.36432 (220) obj. 34796.7 iterations 155
Cbc0038I Pass 205: suminf.   26.22607 (235) obj. 34796.7 iterations 109
Cbc0038I Pass 206: suminf.   28.92380 (234) obj. 34796.7 iterations 192
Cbc0038I Pass 207: suminf.   26.25828 (239) obj. 34796.7 iterations 137
Cbc0038I Pass 208: suminf.   26.20246 (243) obj. 34796.7 iterations 13
Cbc0038I Pass 209: suminf.   26.56021 (226) obj. 34796.7 iterations 115
Cbc0038I Pass 210: suminf.   26.22607 (235) obj. 34796.7 iterations 101
Cbc0038I Pass 211: suminf.   27.28286 (237) obj. 34796.7 iterations 212
Cbc0038I Pass 212: suminf.   26.28927 (239) obj. 34796.7 iterations 125
Cbc0038I Pass 213: suminf.   26.20246 (243) obj. 34796.7 iterations 9
Cbc0038I Pass 214: suminf.   26.92585 (226) obj. 34796.7 iterations 121
Cbc0038I Pass 215: suminf.   67.47640 (345) obj. 34796.7 iterations 809
Cbc0038I Pass 216: suminf.   48.54834 (299) obj. 34796.7 iterations 459
Cbc0038I Pass 217: suminf.   44.19589 (289) obj. 34796.7 iterations 204
Cbc0038I Pass 218: suminf.   42.87844 (280) obj. 34796.7 iterations 98
Cbc0038I Pass 219: suminf.   41.21244 (273) obj. 34796.7 iterations 77
Cbc0038I Pass 220: suminf.   40.43420 (271) obj. 34796.7 iterations 150
Cbc0038I Pass 221: suminf.   39.68455 (273) obj. 34796.7 iterations 137
Cbc0038I Pass 222: suminf.   39.68455 (273) obj. 34796.7 iterations 11
Cbc0038I Pass 223: suminf.   39.19269 (282) obj. 34796.7 iterations 225
Cbc0038I Pass 224: suminf.   39.24595 (279) obj. 34796.7 iterations 6
Cbc0038I Pass 225: suminf.   36.06097 (275) obj. 34796.7 iterations 277
Cbc0038I Pass 226: suminf.   34.46582 (282) obj. 34796.7 iterations 187
Cbc0038I Pass 227: suminf.   34.05514 (285) obj. 34796.7 iterations 21
Cbc0038I Pass 228: suminf.   32.66603 (256) obj. 34796.7 iterations 321
Cbc0038I Pass 229: suminf.   32.44758 (262) obj. 34796.7 iterations 26
Cbc0038I Pass 230: suminf.   32.34873 (234) obj. 34796.7 iterations 224
Cbc0038I Pass 231: suminf.   29.47404 (242) obj. 34796.7 iterations 176
Cbc0038I Pass 232: suminf.   29.67931 (247) obj. 34796.7 iterations 10
Cbc0038I Pass 233: suminf.   31.02804 (266) obj. 34796.7 iterations 256
Cbc0038I Pass 234: suminf.   29.28342 (266) obj. 34796.7 iterations 213
Cbc0038I Pass 235: suminf.   29.19635 (268) obj. 34796.7 iterations 9
Cbc0038I Pass 236: suminf.   31.33398 (242) obj. 34796.7 iterations 420
Cbc0038I Pass 237: suminf.   26.85576 (272) obj. 34796.7 iterations 171
Cbc0038I Pass 238: suminf.   31.89720 (260) obj. 34796.7 iterations 372
Cbc0038I Pass 239: suminf.   30.41359 (259) obj. 34796.7 iterations 60
Cbc0038I Pass 240: suminf.   31.83009 (239) obj. 34796.7 iterations 181
Cbc0038I Pass 241: suminf.   28.10787 (236) obj. 34796.7 iterations 116
Cbc0038I Pass 242: suminf.   28.26521 (252) obj. 34796.7 iterations 59
Cbc0038I Pass 243: suminf.   30.27587 (241) obj. 34796.7 iterations 206
Cbc0038I Pass 244: suminf.   27.11750 (243) obj. 34796.7 iterations 102
Cbc0038I Pass 245: suminf.   27.11750 (243) obj. 34796.7 iterations 2
Cbc0038I Pass 246: suminf.   27.59173 (246) obj. 34796.7 iterations 182
Cbc0038I Pass 247: suminf.   27.40210 (249) obj. 34796.7 iterations 73
Cbc0038I Pass 248: suminf.   30.20747 (245) obj. 34796.7 iterations 178
Cbc0038I Pass 249: suminf.   27.77871 (249) obj. 34796.7 iterations 111
Cbc0038I Pass 250: suminf.   27.55207 (243) obj. 34796.7 iterations 23
Cbc0038I Pass 251: suminf.   30.47635 (231) obj. 34796.7 iterations 296
Cbc0038I Pass 252: suminf.   28.49753 (218) obj. 34796.7 iterations 93
Cbc0038I Pass 253: suminf.   27.75476 (233) obj. 34796.7 iterations 33
Cbc0038I Pass 254: suminf.   29.18515 (240) obj. 34796.7 iterations 286
Cbc0038I Pass 255: suminf.   29.04866 (231) obj. 34796.7 iterations 128
Cbc0038I Pass 256: suminf.   27.92153 (229) obj. 34796.7 iterations 61
Cbc0038I Pass 257: suminf.   26.56562 (219) obj. 34796.7 iterations 205
Cbc0038I Pass 258: suminf.   26.64019 (219) obj. 34796.7 iterations 47
Cbc0038I Pass 259: suminf.   26.58037 (225) obj. 34796.7 iterations 51
Cbc0038I Pass 260: suminf.   26.69653 (236) obj. 34796.7 iterations 164
Cbc0038I Pass 261: suminf.   25.30695 (236) obj. 34796.7 iterations 55
Cbc0038I Pass 262: suminf.   26.36770 (225) obj. 34796.7 iterations 119
Cbc0038I Pass 263: suminf.   60.33797 (317) obj. 34796.7 iterations 712
Cbc0038I Pass 264: suminf.   44.79179 (271) obj. 34796.7 iterations 422
Cbc0038I Pass 265: suminf.   42.21103 (279) obj. 34796.7 iterations 114
Cbc0038I Pass 266: suminf.   41.49865 (274) obj. 34796.7 iterations 51
Cbc0038I Pass 267: suminf.   41.65348 (255) obj. 34796.7 iterations 344
Cbc0038I Pass 268: suminf.   41.40953 (273) obj. 34796.7 iterations 129
Cbc0038I Pass 269: suminf.   37.11144 (258) obj. 34796.7 iterations 266
Cbc0038I Pass 270: suminf.   35.91895 (254) obj. 34796.7 iterations 115
Cbc0038I Pass 271: suminf.   35.68403 (250) obj. 34796.7 iterations 55
Cbc0038I Pass 272: suminf.   35.07317 (258) obj. 34796.7 iterations 92
Cbc0038I Pass 273: suminf.   36.36660 (244) obj. 34796.7 iterations 148
Cbc0038I Pass 274: suminf.   35.95295 (254) obj. 34796.7 iterations 43
Cbc0038I Pass 275: suminf.   36.13465 (259) obj. 34796.7 iterations 32
Cbc0038I Pass 276: suminf.   36.05161 (257) obj. 34796.7 iterations 43
Cbc0038I Pass 277: suminf.   39.21041 (253) obj. 34796.7 iterations 195
Cbc0038I Pass 278: suminf.   36.09084 (248) obj. 34796.7 iterations 166
Cbc0038I Pass 279: suminf.   36.01609 (248) obj. 34796.7 iterations 15
Cbc0038I Pass 280: suminf.   36.92903 (263) obj. 34796.7 iterations 233
Cbc0038I Pass 281: suminf.   36.53278 (255) obj. 34796.7 iterations 61
Cbc0038I Pass 282: suminf.   35.49099 (260) obj. 34796.7 iterations 90
Cbc0038I Pass 283: suminf.   35.41961 (258) obj. 34796.7 iterations 28
Cbc0038I Pass 284: suminf.   38.99336 (249) obj. 34796.7 iterations 259
Cbc0038I Pass 285: suminf.   38.14808 (250) obj. 34796.7 iterations 110
Cbc0038I Pass 286: suminf.   35.35739 (252) obj. 34796.7 iterations 215
Cbc0038I Pass 287: suminf.   33.76108 (262) obj. 34796.7 iterations 166
Cbc0038I Pass 288: suminf.   34.86540 (264) obj. 34796.7 iterations 194
Cbc0038I Pass 289: suminf.   34.42728 (280) obj. 34796.7 iterations 107
Cbc0038I Pass 290: suminf.   33.51208 (249) obj. 34796.7 iterations 239
Cbc0038I Pass 291: suminf.   33.97160 (236) obj. 34796.7 iterations 153
Cbc0038I Pass 292: suminf.   66.33218 (339) obj. 34796.7 iterations 1046
Cbc0038I No solution found this major pass
Cbc0038I Before mini branch and bound, 90 integers at bound fixed and 0 continuous
Cbc0038I Full problem 2424 rows 772 columns, reduced to 2165 rows 682 columns - 140 fixed gives 1329, 376 - still too large
Cbc0038I Mini branch and bound did not improve solution (7.57 seconds)
Cbc0038I After 7.57 seconds - Feasibility pump exiting with objective of 36864 - took 6.45 seconds
Cbc0012I Integer solution of 36864 found by feasibility pump after 0 iterations and 0 nodes (7.57 seconds)
Cbc0038I Full problem 2424 rows 772 columns, reduced to 1293 rows 346 columns - 85 fixed gives 848, 201 - ok now
Cbc0031I 59 added rows had average density of 3.779661
Cbc0013I At root node, 59 cuts changed objective from 29975.413 to 35840 in 26 passes
Cbc0014I Cut generator 0 (Probing) - 978 row cuts average 3.7 elements, 94 column cuts (122 active)  in 0.150 seconds - new frequency is 1
Cbc0014I Cut generator 1 (Gomory) - 624 row cuts average 244.7 elements, 0 column cuts (0 active)  in 0.430 seconds - new frequency is 1
Cbc0014I Cut generator 2 (Knapsack) - 160 row cuts average 6.7 elements, 0 column cuts (0 active)  in 0.036 seconds - new frequency is 1
Cbc0014I Cut generator 3 (Clique) - 0 row cuts average 0.0 elements, 0 column cuts (0 active)  in 0.016 seconds - new frequency is -100
Cbc0014I Cut generator 4 (MixedIntegerRounding2) - 1 row cuts average 4.0 elements, 0 column cuts (0 active)  in 0.028 seconds - new frequency is -100
Cbc0014I Cut generator 5 (FlowCover) - 0 row cuts average 0.0 elements, 0 column cuts (0 active)  in 0.023 seconds - new frequency is -100
Cbc0014I Cut generator 6 (TwoMirCuts) - 995 row cuts average 12.2 elements, 0 column cuts (0 active)  in 0.095 seconds - new frequency is 1
Cbc0010I After 0 nodes, 1 on tree, 36864 best solution, best possible 35840 (16.85 seconds)
Cbc0004I Integer solution of 35840 found after 43171 iterations and 1 nodes (16.93 seconds)
Cbc0001I Search completed - best objective 35840, took 43171 iterations and 1 nodes (16.93 seconds)
Cbc0032I Strong branching done 2 times (4 iterations), fathomed 0 nodes and fixed 0 variables
Cbc0035I Maximum depth 0, 0 variables fixed on reduced cost
Cuts at root node changed objective from 29975.4 to 35840
Probing was tried 28 times and created 1150 cuts of which 28 were active after adding rounds of cuts (0.152 seconds)
Gomory was tried 28 times and created 624 cuts of which 0 were active after adding rounds of cuts (0.431 seconds)
Knapsack was tried 28 times and created 161 cuts of which 0 were active after adding rounds of cuts (0.037 seconds)
Clique was tried 26 times and created 0 cuts of which 0 were active after adding rounds of cuts (0.016 seconds)
MixedIntegerRounding2 was tried 26 times and created 1 cuts of which 0 were active after adding rounds of cuts (0.028 seconds)
FlowCover was tried 26 times and created 0 cuts of which 0 were active after adding rounds of cuts (0.023 seconds)
TwoMirCuts was tried 28 times and created 1041 cuts of which 0 were active after adding rounds of cuts (0.102 seconds)
ZeroHalf was tried 1 times and created 0 cuts of which 0 were active after adding rounds of cuts (0.014 seconds)
ImplicationCuts was tried 2 times and created 2 cuts of which 0 were active after adding rounds of cuts (0.000 seconds)

Result - Optimal solution found

Objective value:                35840.00000000
Enumerated nodes:               1
Total iterations:               43171
Time (CPU seconds):             17.03
Time (Wallclock seconds):       17.07

Total time (CPU seconds):       17.04   (Wallclock seconds):       17.08

